32      4       
18      28      33      16      
0       0       0       0       0       3       2       3       4       
2       2       10      0       0       3       5       6       13      
1       1       10      0       0       2       7       19      
9       10      10      1       0       2       14      17      
10      3       9       0       0       1       9       
4       0       7       1       0       1       19      
8       0       3       0       4       3       8       10      12      
8       0       1       9       0       2       11      21      
10      0       2       0       7       1       12      
1       7       0       0       1       1       26      
2       0       8       5       2       3       15      16      23      
4       1       0       0       0       1       21      
6       6       0       4       0       1       22      
6       0       0       8       3       1       20      
2       10      0       1       0       1       27      
1       0       1       9       0       2       18      28      
7       0       0       9       5       1       19      
8       0       6       10      0       1       20      
10      1       10      8       0       2       21      29      
6       3       1       9       0       3       24      25      29      
3       3       0       2       2       1       25      
4       6       0       9       0       1       31      
9       0       0       2       0       1       31      
8       10      0       7       0       2       27      31      
6       0       9       0       6       1       27      
7       0       1       0       2       2       29      30      
1       9       0       0       0       1       30      
8       0       0       4       4       1       30      
4       7       0       0       0       1       32      
6       0       2       5       9       1       32      
2       0       3       0       0       1       32      
0       0       0       0       0       0       